
Gurobi 9.0.3 (win64) logging started Sat Feb  5 17:53:00 2022

Changed value of parameter LogFile to logs\CRVRP_5-2-7-100_4_7.LOG
   Prev: logs\CRVRP_5-2-7-100_4_6.LOG  Default: 
Changed value of parameter Seed to 364546693
   Prev: 1662962275  Min: 0  Max: 2000000000  Default: 0
Parameter Threads unchanged
   Value: 2  Min: 0  Max: 1024  Default: 0
Parameter TimeLimit unchanged
   Value: 60.0  Min: 0.0  Max: inf  Default: inf
Parameter Symmetry unchanged
   Value: 2  Min: -1  Max: 2  Default: -1
Parameter Cuts unchanged
   Value: 2  Min: -1  Max: 3  Default: -1
Parameter PreDepRow unchanged
   Value: 1  Min: -1  Max: 1  Default: -1
Parameter ScaleFlag unchanged
   Value: 1  Min: -1  Max: 3  Default: -1
Parameter NormAdjust unchanged
   Value: 0  Min: -1  Max: 3  Default: -1
Gurobi Optimizer version 9.0.3 build v9.0.3rc0 (win64)
Optimize a model with 1001 rows, 810 columns and 4006 nonzeros
Model fingerprint: 0x10dd05f9
Variable types: 32 continuous, 778 integer (522 binary)
Coefficient statistics:
  Matrix range     [1e+00, 1e+06]
  Objective range  [1e+00, 1e+00]
  Bounds range     [1e+00, 1e+04]
  RHS range        [1e+00, 1e+06]
Presolve removed 616 rows and 515 columns
Presolve time: 0.02s
Presolved: 385 rows, 295 columns, 2069 nonzeros
Variable types: 15 continuous, 280 integer (230 binary)

Root relaxation: objective 3.372064e+02, 217 iterations, 0.00 seconds

    Nodes    |    Current Node    |     Objective Bounds      |     Work
 Expl Unexpl |  Obj  Depth IntInf | Incumbent    BestBd   Gap | It/Node Time

     0     0  337.20636    0   42          -  337.20636      -     -    0s
H    0     0                    1130.1883465  337.20636  70.2%     -    0s
     0     0  362.52690    0   58 1130.18835  362.52690  67.9%     -    0s
H    0     0                     950.8515196  362.52690  61.9%     -    0s
H    0     0                     850.1465163  362.52690  57.4%     -    0s
     0     0  372.34980    0   49  850.14652  372.34980  56.2%     -    0s
     0     0  372.34980    0   49  850.14652  372.34980  56.2%     -    0s
     0     0  382.03932    0   57  850.14652  382.03932  55.1%     -    0s
     0     0  388.55862    0   59  850.14652  388.55862  54.3%     -    0s
H    0     0                     817.9289903  388.55862  52.5%     -    0s
H    0     0                     694.7940125  388.55862  44.1%     -    0s
     0     0  388.55862    0   59  694.79401  388.55862  44.1%     -    0s
     0     0  391.31430    0   62  694.79401  391.31430  43.7%     -    0s
H    0     0                     691.2836661  391.31430  43.4%     -    0s
     0     0  391.31430    0   62  691.28367  391.31430  43.4%     -    0s
     0     0  391.56575    0   57  691.28367  391.56575  43.4%     -    0s
     0     0  391.56575    0   53  691.28367  391.56575  43.4%     -    0s
     0     2  391.56575    0   49  691.28367  391.56575  43.4%     -    0s
*   62    52              26     582.5968534  394.62224  32.3%  16.4    0s
*  116    88              33     566.4057953  400.32550  29.3%  13.1    0s
H  139   104                     550.0085902  401.83864  26.9%  13.1    0s
*  269   128              16     548.9959018  406.57642  25.9%  13.0    0s
*  278   121              40     540.5376709  406.57642  24.8%  12.9    0s
*  361   128              31     489.7781838  449.29157  8.27%  12.7    0s
*  372   128              27     478.6410340  449.29157  6.13%  12.8    0s
*  851    96              29     473.9663032  453.78100  4.26%  12.8    1s

Cutting planes:
  Gomory: 17
  Cover: 7
  Implied bound: 22
  Projected implied bound: 3
  Clique: 1
  MIR: 18
  StrongCG: 1
  Flow cover: 82
  GUB cover: 1
  Inf proof: 2
  RLT: 105
  Relax-and-lift: 24

Explored 972 nodes (12028 simplex iterations) in 1.15 seconds
Thread count was 2 (of 8 available processors)

Solution count 10: 473.966 478.641 489.778 ... 694.794

Optimal solution found (tolerance 1.00e-04)
Best objective 4.739663032251e+02, best bound 4.739663032251e+02, gap 0.0000%
Discarded solution information
